units metal
atom_style atomic
boundary p p p
read_data data.lammps
pair_style sw
pair_coeff * * CdTe.sw Cd Te
thermo 1
thermo_style custom step pe press pxx pyy pzz pxy pxz pyz
dump 1 all custom 1 forces.dump id fx fy fz
run 0