units real
atom_style charge
read_data data.lammps
pair_style reaxff lmp_control
pair_coeff * * ffield.reax.cho H
fix 1 all qeq/reaxff 1 0.0 10.0 1.0e-6 reaxff maxiter 1000
fix 2 all reaxff/bonds 1 bonds.reaxff
compute reax all pair reaxff
variable eb      equal c_reax[1]
variable ea      equal c_reax[2]
variable elp     equal c_reax[3]
variable emol    equal c_reax[4]
variable ev      equal c_reax[5]
variable epen    equal c_reax[6]
variable ecoa    equal c_reax[7]
variable ehb     equal c_reax[8]
variable et      equal c_reax[9]
variable eco     equal c_reax[10]
variable ew      equal c_reax[11]
variable ep      equal c_reax[12]
variable efi     equal c_reax[13]
variable eqeq    equal c_reax[14]
thermo 1
thermo_style custom step pe epair press pxx pyy pzz pxy pxz pyz v_eb v_ea v_elp v_ev v_epen v_ecoa v_ehb v_et v_eco v_ew v_ep v_eqeq
dump 1 all custom 1 forces.dump id fx fy fz
dump_modify 1 sort id
run 0
