units metal
boundary p p p
atom_style atomic
read_data data.lammps
pair_style eam/alloy
pair_coeff * * CuNi.eam.alloy Cu Ni
thermo          1
thermo_style    custom step pe press pxx pyy pzz pxy pxz pyz
dump            1 all custom 1 forces.dump id fx fy fz
dump_modify     1 sort id
run 0
