units real
atom_style charge
read_data data.lammps
pair_style reaxff lmp_control
pair_coeff * * ffield.reax.cho O H
fix 1 all qeq/reaxff 1 0.0 10.0 1.0e-6 reaxff maxiter 1000
thermo 1
thermo_style custom step pe etotal press
dump 1 all custom 1 charges.dump id q
run 0
