# LAMMPS input script for EAM Cu validation
units           metal
atom_style      atomic
boundary        p p p

read_data       data.lammps

pair_style      eam
pair_coeff      * * cuu3.eam

neighbor        0.3 bin
neigh_modify    delay 0 every 1 check yes

thermo          1
thermo_style    custom step pe press pxx pyy pzz pxy pxz pyz

dump            1 all custom 1 forces.dump id fx fy fz
dump_modify     1 sort id

run             0
